(set-option :pp.decimal true)
(set-option :pp.decimal_precision 7)
(declare-const conc1 Real)
(declare-const conc2 Real)
(declare-const conc3 Real)
(declare-const conc4 Real)
(declare-const flow1 Real)
(declare-const flow2 Real)
(declare-const flow3 Real)
(assert (> conc1 0))
(assert (> conc2 0))
(assert (> conc3 0))
(assert (> conc4 0))
(assert (= flow1 (+ (* 0.768648 conc1 conc2) (* -1. 1 conc3)))
(assert (= flow2 (+ (* 0.850178 conc1 conc3) (* -1. 1 conc4)))
(assert (= flow3 (+ (* 0.528643 conc2 conc2) (* -1. 1 conc4)))
(assert (= (+ (* 1 flow1) (* 1 flow2)) 0)
(assert (= (+ (* 1 flow1) (* 2 flow3)) 0)
(assert (= (+ (* -1 flow1) (* 1 flow2)) 0)
(assert (= (+ (* -1 flow2) (* -1 flow3)) 0)
(check-sat)
(get-model)
